c ind 84 81 17 75 16 45 15 14 72 13 42 12 11 69 10 39 9 8 66 7 36 6 5 63 18 78 19 48 51 54 57 60 0
p cnf 144 258
1 0
-2 0
1 0
-2 0
3 0
4 0
-5 0
-6 0
-7 0
-8 0
-9 0
-10 0
-11 0
-12 0
-13 0
-14 0
-15 0
-16 0
-17 0
-18 0
-19 0
-20 0
-21 0
-22 0
-23 0
-24 0
-25 0
-26 0
-27 0
-28 0
-29 0
-30 0
-31 0
-32 0
-33 0
-34 0
35 0
-35 36 -37 0
-35 -36 37 0
35 36 37 0
35 -36 -37 0
38 0
-38 39 -40 0
-38 -39 40 0
38 39 40 0
38 -39 -40 0
41 0
-41 42 -43 0
-41 -42 43 0
41 42 43 0
41 -42 -43 0
44 0
-44 45 -46 0
-44 -45 46 0
44 45 46 0
44 -45 -46 0
47 0
-47 48 -49 0
-47 -48 49 0
47 48 49 0
47 -48 -49 0
50 0
-50 51 -52 0
-50 -51 52 0
50 51 52 0
50 -51 -52 0
53 0
-53 54 -55 0
-53 -54 55 0
53 54 55 0
53 -54 -55 0
56 0
-56 57 -58 0
-56 -57 58 0
56 57 58 0
56 -57 -58 0
59 0
-59 60 -61 0
-59 -60 61 0
59 60 61 0
59 -60 -61 0
62 0
-62 63 -64 0
-62 -63 64 0
62 63 64 0
62 -63 -64 0
65 0
-65 66 -67 0
-65 -66 67 0
65 66 67 0
65 -66 -67 0
68 0
-68 69 -70 0
-68 -69 70 0
68 69 70 0
68 -69 -70 0
71 0
-71 72 -73 0
-71 -72 73 0
71 72 73 0
71 -72 -73 0
74 0
-74 75 -76 0
-74 -75 76 0
74 75 76 0
74 -75 -76 0
77 0
-77 78 -79 0
-77 -78 79 0
77 78 79 0
77 -78 -79 0
80 0
-80 81 -82 0
-80 -81 82 0
80 81 82 0
80 -81 -82 0
83 0
-83 84 -85 0
-83 -84 85 0
83 84 85 0
83 -84 -85 0
-86 0
-87 0
-88 0
-89 0
-90 0
-91 0
-92 0
-93 0
-94 0
-95 0
-96 0
-97 0
-98 0
-99 0
-100 0
101 0
-101 102 -37 0
-101 -102 37 0
101 102 37 0
101 -102 -37 0
103 0
-103 104 -40 0
-103 -104 40 0
103 104 40 0
103 -104 -40 0
105 0
-105 106 -43 0
-105 -106 43 0
105 106 43 0
105 -106 -43 0
107 0
-107 108 -46 0
-107 -108 46 0
107 108 46 0
107 -108 -46 0
109 0
-109 110 -49 0
-109 -110 49 0
109 110 49 0
109 -110 -49 0
111 0
-111 112 -52 0
-111 -112 52 0
111 112 52 0
111 -112 -52 0
113 0
-113 114 -55 0
-113 -114 55 0
113 114 55 0
113 -114 -55 0
115 0
-115 116 -58 0
-115 -116 58 0
115 116 58 0
115 -116 -58 0
117 0
-117 118 -61 0
-117 -118 61 0
117 118 61 0
117 -118 -61 0
119 0
-119 120 -64 0
-119 -120 64 0
119 120 64 0
119 -120 -64 0
121 0
-121 122 -67 0
-121 -122 67 0
121 122 67 0
121 -122 -67 0
123 0
-123 124 -70 0
-123 -124 70 0
123 124 70 0
123 -124 -70 0
125 0
-125 126 -73 0
-125 -126 73 0
125 126 73 0
125 -126 -73 0
127 0
-127 128 -76 0
-127 -128 76 0
127 128 76 0
127 -128 -76 0
129 0
-129 130 -79 0
-129 -130 79 0
129 130 79 0
129 -130 -79 0
131 0
-131 132 -82 0
-131 -132 82 0
131 132 82 0
131 -132 -82 0
133 0
-133 134 -85 0
-133 -134 85 0
133 134 85 0
133 -134 -85 0
135 0
135 85 0
135 -136 0
-135 -85 136 0
-136 85 0
-136 137 0
136 -85 -137 0
137 82 0
137 -138 0
-137 -82 138 0
-138 -70 0
-138 -73 0
-138 -76 0
-138 -79 0
-138 82 0
-138 139 0
138 70 73 76 79 -82 -139 0
139 67 0
139 -140 0
-139 -67 140 0
-140 67 0
-140 141 0
140 -67 -141 0
141 64 0
141 -142 0
-141 -64 142 0
-142 -61 0
-142 64 0
-142 143 0
142 61 -64 -143 0
143 58 0
143 -144 0
-143 -58 144 0
-144 -52 0
-144 -55 0
-144 58 0
144 52 55 -58 0
